2664
2796
2812
2745
2837
3411
3223
3309
3245
3136
3679
3758
3969
3579
3538
4166
4344
4238
4228
4129
4528
4758
4743
4696
4196
5234
5442
5252
5368
5275
5820
5927
5728
5510
5651
6349
6578
6459
6199
6247
3450
3648
3693
3780
3511
4396
4324
4149
4045
4169
4835
5008
5073
5020
4952
6059
5697
5705
5703
5883
6444
6451
6593
6477
6361
7364
7549
7475
7479
7579
8106
8397
7984
8076
7972
9249
9279
9277
9481
9108
